CMD:
./solvers/bin/cadical --plain --no-reduce -t 1600 ./data/cnfs//cal41/cal41.80.cnf

c --- [ banner ] -------------------------------------------------------------
c 
c CaDiCaL SAT Solver
c Copyright (c) 2016-2024
c A. Biere, M. Fleury, N. Froleyks, K. Fazekas, F. Pollitt, T. Faller
c JKU Linz, University of Freiburg, TU Wien
c 
c Version 2.1.3 5296d3d2a9bf48c154ab2acb5e44625776d821bf
c g++ (Gentoo 12.3.1_p20230526 p2) 12.3.1 20230526 -Wall -Wextra -O3 -DNDEBUG
c Sat Aug 9 07:26:21 PDT 2025 Linux cedar2.int.cedar.computecanada.ca 5.14.0-362.24.2.el9_3.x86_64 x86_64
c 
c --- [ limit ] --------------------------------------------------------------
c 
c setting time limit to 1600 seconds real time (due to '-t 1600')
c 
c --- [ parsing input ] ------------------------------------------------------
c 
c reading DIMACS file from './data/cnfs//cal41/cal41.80.cnf'
c opening file to read './data/cnfs//cal41/cal41.80.cnf'
c found 'p cnf 179900 495799' header
c parsed 495799 clauses in 0.08 seconds process time
c 
c --- [ options ] ------------------------------------------------------------
c 
c   --compact=false                (different from default 'true')
c   --decompose=false              (different from default 'true')
c   --deduplicate=false            (different from default 'true')
c   --elim=false                   (different from default 'true')
c   --probe=false                  (different from default 'true')
c   --reduce=false                 (different from default 'true')
c   --subsume=false                (different from default 'true')
c   --ternary=false                (different from default 'true')
c   --transred=false               (different from default 'true')
c   --vivify=false                 (different from default 'true')
c 
c --- [ solving ] ------------------------------------------------------------
c 
c time measured in process time since initialization
c 
c  seconds  reductions  redundant  irredundant
c         MB    restarts       trail       variables
c          level   conflicts       glue          remaining
c 
c *  0.08 77  0 0   0    0    0  0% 0 448101 168899 94%
c {  0.08 77  0 0   0    0    0  0% 0 448101 168899 94%
c i  0.08 77 14 0   0  103   85  7% 3 448101 168897 94%
c }  0.39 80 3481 0 126 1001  930 33% 2 448101 168897 94%
c [  0.39 80  0 0 126 1001  930  0% 0 448101 168897 94%
c O  0.39 80 182 0 126 1002  931  7% 1 448101 168897 94%
c i  0.44 80 6786 0 126 1159 1087 54% 2 448101 168896 94%
c i  0.44 80 7643 0 126 1185 1108 60% 2 448101 168879 94%
c i  0.45 80 9264 0 126 1262 1172 72% 4 448101 168876 94%
c ]  0.56 80 8808 0 127 3002 2715 76% 8 448101 168876 94%
c {  0.56 80 3481 0 127 3002 2715 33% 2 448101 168876 94%
c F  0.57 80 3477 0 128 3003 2716 33% 2 448101 168876 94%
c #  1.10 81 1013 0 583 6004 5259 21% 5 448101 168876 94%
c i  1.10 81 1011 0 584 6010 5264 21% 5 448101 168856 94%
c }  1.19 81 829 0 705 7007 6115 19% 5 448101 168856 94%
c [  1.19 81 8808 0 705 7007 6115 76% 8 448101 168856 94%
c I  1.37 82 3550 0 707 10007 8607 41% 10 448101 168856 94%
c ]  1.64 83 1934 0 710 15007 13052 32% 9 448101 168856 94%
c {  1.64 83 829 0 710 15007 13052 19% 5 448101 168856 94%
c B  1.65 83 829 0 710 15008 13053 19% 5 448101 168856 94%
c 
c  seconds   reductions     redundant  irredundant
c         MB     restarts          trail       variables
c           level     conflicts        glue          remaining
c 
c W  2.41 85 517 0 1272 21009 18244 20% 6 436706 168856 94%
c F  3.09 85 418 0 1618 28015 24297 20% 5 436706 168856 94%
c }  3.45 85 386 0 1836 31007 26912 20% 5 436706 168856 94%
c [  3.45 85 1934 0 1836 31007 26912 32% 9 436706 168856 94%
c B  3.90 85 1333 0 1839 36016 31302 28% 11 436706 168856 94%
c W  4.78 87 886 0 1843 45017 39117 24% 11 436706 168856 94%
c O  5.52 89 667 0 1844 55019 47780 23% 10 436706 168856 94%
c ]  6.39 91 573 0 1850 63007 54854 23% 12 436706 168856 94%
c {  6.39 91 386 0 1850 63007 54854 20% 5 436706 168856 94%
c B  6.82 92 357 0 2084 66020 57496 20% 6 436706 168856 94%
c W  8.49 95 285 0 2816 78021 67853 20% 6 436706 168856 94%
c i  9.10 95 268 0 3172 81477 70632 19% 6 436706 168847 94%
c i  9.68 95 254 0 3554 84023 72865 19% 6 436706 168833 94%
c # 10.66 97 248 0 3931 91022 79044 19% 6 436706 168833 94%
c i 11.55 98 235 0 4380 96821 84068 19% 6 436706 168822 94%
c B 12.99 99 218 0 5209 105027 91233 19% 6 436706 168822 94%
c i 15.17 101 204 0 6043 119777 104171 19% 6 436706 168812 94%
c i 15.21 101 204 0 6052 119817 104206 19% 6 436706 168792 94%
c i 15.21 101 204 0 6053 119818 104206 19% 6 436706 168768 94%
c W 15.52 124 204 0 6066 120032 103942 19% 6 436335 168768 94%
c 
c  seconds    reductions      redundant   irredundant
c          MB     restarts            trail       variables
c            level     conflicts          glue          remaining
c 
c } 17.14 124 198 0 6828 127008 110051 19% 6 436335 168768 94%
c [ 17.14 124 573 0 6828 127008 110051 23% 12 436335 168768 94%
c B 18.09 124 522 0 6833 136034 117921 23% 14 436335 168768 94%
c W 20.19 124 418 0 6838 153036 132679 23% 14 436335 168768 94%
c I 22.41 124 351 0 6840 171037 147579 21% 15 436335 168768 94%
c B 24.08 124 262 0 6851 190038 157692 18% 14 436335 168768 94%
c i 24.14 124 265 0 6851 190170 157809 18% 14 436335 168767 94%
c W 27.34 131 224 0 6859 210040 171555 16% 13 436332 168767 94%
c i 32.50 131 206 0 6861 216195 173605 16% 13 436332 168689 94%
c i 34.33 131 197 0 6863 219683 175000 16% 13 436332 168543 94%
c i 34.83 131 196 0 6864 220367 175081 16% 13 436332 168465 94%
c i 34.84 131 195 0 6864 220436 175087 16% 13 436332 168463 94%
c i 34.95 131 195 0 6864 220766 175128 16% 13 436332 168324 94%
c i 35.01 131 194 0 6864 220905 175144 16% 13 436332 168246 94%
c i 35.05 131 194 0 6865 220957 175148 16% 13 436332 168158 93%
c i 35.05 131 194 0 6865 220989 175153 16% 13 436332 168080 93%
c i 35.06 131 194 0 6865 221006 175156 16% 13 436332 167909 93%
c i 35.07 131 194 0 6865 221016 175159 16% 13 436332 167565 93%
c i 35.07 131 194 0 6865 221018 175160 16% 13 436332 167343 93%
c ] 35.07 131 194 0 6865 221020 175160 16% 13 436332 167048 93%
c 
c  seconds    reductions      redundant    irredundant
c          MB     restarts            trail        variables
c            level     conflicts          glue           remaining
c 
c 0 35.07 131 194 0 6865 221020 175160 16% 13 436332 167048 93%
c 
c --- [ result ] -------------------------------------------------------------
c 
s UNSATISFIABLE
c 
c --- [ run-time profiling ] -------------------------------------------------
c 
c process time taken by individual solving procedures
c (percentage relative to process time for solving)
c 
c        34.99  100.00% search
c        21.18   60.52% stable
c        13.02   37.20% unstable
c         0.80    2.28% walk
c         0.08    0.22% parse
c         0.00    0.00% lucky
c         0.00    0.00% simplify
c   =================================
c        34.99   99.78% solve
c 
c last line shows process time for solving
c (percentage relative to total process time)
c 
c --- [ statistics ] ---------------------------------------------------------
c 
c chronological:             87988        39.81 %  of conflicts
c conflicts:                221020      6316.05    per second
c decisions:               1258720     35970.20    per second
c fixed:                     12851         7.14 %  of all variables
c learned:                  211469        95.68 %  per conflict
c learned_lits:            7460473       100.00 %  learned literals
c minimized:                     0         0.00 %  learned literals
c shrunken:                2611776        35.01 %  learned literals
c minishrunken:            1243529        16.67 %  learned literals
c otfs:                       1694         0.77 %  of conflict
c propagations:          350185653        10.01 M  per second
c rephased:                     20     11051.00    interval
c restarts:                   6865        32.20    interval
c stabilizing:                   4        61.48 %  of conflicts
c subsumed:                  35978         5.45 %  of all clauses
c strengthened:               1531         0.23 %  of all clauses
c walked:                        6     36836.67    interval
c 
c seconds are measured in process time for solving
c 
c --- [ resources ] ----------------------------------------------------------
c 
c total process time since initialization:        35.07    seconds
c total real time since initialization:           35.25    seconds
c maximum resident set size of process:          151.67    MB
c 
c --- [ shutting down ] ------------------------------------------------------
c 
c exit 20
